Set parameter TSPort to value 51199
Set parameter TokenServer to value "open-license1.lanl.gov"
Set parameter TimeLimit to value 2048
Set parameter Threads to value 1
Gurobi Optimizer version 10.0.3 build v10.0.3rc0 (linux64)

CPU model: Intel(R) Xeon(R) CPU E5-2695 v4 @ 2.10GHz, instruction set [SSE2|AVX|AVX2]
Thread count: 36 physical cores, 72 logical processors, using up to 1 threads

Optimize a model with 0 rows, 2897 columns and 0 nonzeros
Model fingerprint: 0xef41fc9c
Model has 13438 quadratic objective terms
Variable types: 0 continuous, 2897 integer (2897 binary)
Coefficient statistics:
  Matrix range     [0e+00, 0e+00]
  Objective range  [2e+00, 3e+01]
  QObjective range [8e+00, 8e+00]
  Bounds range     [1e+00, 1e+00]
  RHS range        [0e+00, 0e+00]
Found heuristic solution: objective 0.0000000
Found heuristic solution: objective -4876.000000
Found heuristic solution: objective -18070.00000
Found heuristic solution: objective -18112.00000
Presolve removed 0 rows and 1 columns (presolve time = 6s) ...
Presolve removed 0 rows and 1 columns
Presolve time: 6.34s
Presolved: 13437 rows, 16333 columns, 40311 nonzeros
Variable types: 0 continuous, 16333 integer (16333 binary)

Root simplex log...

Iteration    Objective       Primal Inf.    Dual Inf.      Time
       0   -2.7054000e+04   5.111000e+03   0.000000e+00     10s
    3514   -2.5408000e+04   1.557500e+03   0.000000e+00     10s
    4125   -2.5256000e+04   0.000000e+00   0.000000e+00     10s

Root relaxation: objective -2.525600e+04, 4125 iterations, 0.98 seconds (0.03 work units)
Total elapsed time = 10.40s

    Nodes    |    Current Node    |     Objective Bounds      |     Work
 Expl Unexpl |  Obj  Depth IntInf | Incumbent    BestBd   Gap | It/Node Time

     0     0 -25256.000    0 2896 -18112.000 -25256.000  39.4%     -   12s
     0     0 -23599.000    0 3702 -18112.000 -23599.000  30.3%     -   22s
     0     0 -23341.000    0 3859 -18112.000 -23341.000  28.9%     -   26s
     0     0 -23330.000    0 3860 -18112.000 -23330.000  28.8%     -   27s
     0     0 -23007.000    0 4082 -18112.000 -23007.000  27.0%     -   37s
     0     0 -23007.000    0 4051 -18112.000 -23007.000  27.0%     -   43s
     0     2 -23006.500    0 4045 -18112.000 -23006.500  27.0%     -   57s
     7     9 -22970.000    4 4088 -18112.000 -22997.000  27.0%   542   60s
    21    23 -22891.500   11 4152 -18112.000 -22997.000  27.0%   256   65s
    35    37 -22833.500   18 4242 -18112.000 -22997.000  27.0%   197   70s
    51    53 -22757.500   26 4273 -18112.000 -22997.000  27.0%   164   75s
    64    66 -22708.000   32 4343 -18112.000 -22997.000  27.0%   158   80s
    81    83 -22616.000   41 4412 -18112.000 -22997.000  27.0%   141   85s
    97    99 -22553.000   49 4476 -18112.000 -22997.000  27.0%   133   90s
   113   115 -22476.000   57 4542 -18112.000 -22997.000  27.0%   128   95s
   130   132 -22397.000   65 4614 -18112.000 -22997.000  27.0%   125  100s
   148   150 -22324.000   74 4681 -18112.000 -22997.000  27.0%   117  105s
   164   166 -22254.000   82 4737 -18112.000 -22997.000  27.0%   116  110s
   180   182 -22190.000   90 4731 -18112.000 -22997.000  27.0%   114  115s
   196   198 -22116.000   98 4736 -18112.000 -22997.000  27.0%   112  120s
   212   214 -22052.000  106 4784 -18112.000 -22997.000  27.0%   109  125s
   230   232 -21990.500  115 4802 -18112.000 -22997.000  27.0%   107  130s
   248   250 -21912.500  124 4846 -18112.000 -22997.000  27.0%   106  135s
   263   265 -21848.500  132 4874 -18112.000 -22997.000  27.0%   107  140s
   279   281 -21782.500  140 4897 -18112.000 -22997.000  27.0%   105  145s
   293   295 -21723.500  147 4962 -18112.000 -22997.000  27.0%   104  150s
   308   310 -21663.500  154 5005 -18112.000 -22997.000  27.0%   103  155s
   324   326 -21604.500  162 5014 -18112.000 -22997.000  27.0%   103  160s
   342   344 -21527.500  171 5081 -18112.000 -22997.000  27.0%   101  165s
   359   361 -21453.000  180 5100 -18112.000 -22997.000  27.0%   100  170s
   376   378 -21389.000  188 5161 -18112.000 -22997.000  27.0%  99.2  175s
   392   394 -21327.000  196 5197 -18112.000 -22997.000  27.0%  98.4  180s
   405   407 -21273.000  203 5189 -18112.000 -22997.000  27.0%  99.0  185s
   422   424 -21209.000  211 5240 -18112.000 -22997.000  27.0%  98.3  190s
   438   440 -21143.000  219 5275 -18112.000 -22997.000  27.0%  97.7  195s
   457   459 -21077.000  229 5331 -18112.000 -22997.000  27.0%  96.2  200s
   471   473 -21030.000  236 5377 -18112.000 -22997.000  27.0%  95.8  205s
   486   488 -20998.000  243 5401 -18112.000 -22997.000  27.0%  95.1  210s
   502   504 -20946.000  252 5381 -18112.000 -22997.000  27.0%  95.0  215s
   517   519 -20888.000  259 5372 -18112.000 -22997.000  27.0%  95.3  220s
   533   535 -20833.000  267 5369 -18112.000 -22997.000  27.0%  94.4  225s
   546   548 -20781.000  274 5391 -18112.000 -22997.000  27.0%  94.7  231s
   560   562 -20734.000  281 5423 -18112.000 -22997.000  27.0%  94.5  235s
   573   575 -20695.000  287 5446 -18112.000 -22997.000  27.0%  93.5  240s
   593   595 -20633.000  297 5404 -18112.000 -22997.000  27.0%  92.4  245s
   609   611 -20583.000  305 5422 -18112.000 -22997.000  27.0%  91.5  250s
   626   628 -20529.000  314 5461 -18112.000 -22997.000  27.0%  90.6  255s
   644   646 -20464.000  323 5497 -18112.000 -22997.000  27.0%  89.8  260s
   658   660 -20411.000  330 5522 -18112.000 -22997.000  27.0%  89.0  265s
   675   677 -20358.000  338 5548 -18112.000 -22997.000  27.0%  88.3  270s
   692   694 -20294.000  347 5594 -18112.000 -22997.000  27.0%  87.6  275s
   708   710 -20242.000  355 5611 -18112.000 -22997.000  27.0%  87.2  280s
   725   727 -20186.000  363 5631 -18112.000 -22997.000  27.0%  87.1  285s
   741   743 -20132.000  371 5665 -18112.000 -22997.000  27.0%  86.4  290s
   756   758 -20070.500  379 5659 -18112.000 -22997.000  27.0%  85.9  295s
   771   773 -20027.500  386 5656 -18112.000 -22997.000  27.0%  85.5  300s
   786   788 -19981.500  394 5666 -18112.000 -22997.000  27.0%  85.0  305s
   806   808 -19919.500  404 5679 -18112.000 -22997.000  27.0%  84.5  310s
   822   824 -19862.500  412 5685 -18112.000 -22997.000  27.0%  84.0  315s
   837   839 -19829.500  419 5681 -18112.000 -22997.000  27.0%  83.7  321s
   851   853 -19787.500  426 5690 -18112.000 -22997.000  27.0%  83.2  325s
   864   866 -19740.500  433 5717 -18112.000 -22997.000  27.0%  82.8  357s
   873   875 -19718.500  437 5708 -18112.000 -22997.000  27.0%  82.4  360s
   892   894 -19654.500  447 5740 -18112.000 -22997.000  27.0%  81.9  365s
   909   911 -19600.000  455 5706 -18112.000 -22997.000  27.0%  81.2  394s
   910   912 -19594.000  456 5703 -18112.000 -22997.000  27.0%  81.2  402s
   919   921 -19567.000  460 5704 -18112.000 -22997.000  27.0%  80.9  405s
   942   944 -19508.000  472 5707 -18112.000 -22997.000  27.0%  80.2  410s
   962   964 -19457.000  482 5710 -18112.000 -22997.000  27.0%  79.6  415s
   986   988 -19386.000  494 5674 -18112.000 -22997.000  27.0%  78.7  420s
  1005  1007 -19335.000  504 5672 -18112.000 -22997.000  27.0%  78.2  425s
  1026  1028 -19280.000  514 5679 -18112.000 -22997.000  27.0%  77.5  430s
  1044  1046 -19243.000  523 5712 -18112.000 -22997.000  27.0%  77.5  435s
  1066  1068 -19197.000  534 5723 -18112.000 -22997.000  27.0%  76.9  440s
  1086  1088 -19153.000  544 5709 -18112.000 -22997.000  27.0%  76.5  445s
  1106  1108 -19119.000  554 5699 -18112.000 -22997.000  27.0%  75.9  450s
  1131  1133 -19107.000  568 5653 -18112.000 -22997.000  27.0%  75.0  455s
  1146  1148 -19067.000  576 5638 -18112.000 -22997.000  27.0%  74.8  460s
  1166  1168 -19011.000  586 5614 -18112.000 -22997.000  27.0%  74.6  465s
  1169  1171 -19000.000  587 5609 -18112.000 -22997.000  27.0%  74.7  471s
H 1170  1170                    -18116.00000 -22997.000  26.9%  74.6  471s
  1185  1187 -18977.000  595 5598 -18116.000 -22997.000  26.9%  74.6  475s
  1206  1208 -18926.000  606 5567 -18116.000 -22997.000  26.9%  74.3  480s
  1225  1227 -18884.000  615 5551 -18116.000 -22997.000  26.9%  74.0  485s
  1247  1249 -18829.500  626 5566 -18116.000 -22997.000  26.9%  73.7  490s
  1266  1268 -18790.500  636 5553 -18116.000 -22997.000  26.9%  73.5  495s
  1287  1289 -18743.500  646 5556 -18116.000 -22997.000  26.9%  73.2  500s
  1307  1309 -18699.500  656 5499 -18116.000 -22997.000  26.9%  72.9  505s
  1314  1316 -18682.000  660 5493 -18116.000 -22997.000  26.9%  72.9  512s
  1325  1327 -18660.000  665 5465 -18116.000 -22997.000  26.9%  72.8  515s
  1347  1349 -18613.000  676 5438 -18116.000 -22997.000  26.9%  72.4  520s
  1366  1368 -18570.000  686 5377 -18116.000 -22997.000  26.9%  72.1  525s
  1388  1390 -18511.000  697 5364 -18116.000 -22997.000  26.9%  71.6  530s
H 1404  1404                    -18118.00000 -22997.000  26.9%  71.3  534s
  1409  1411 -18463.000  707 5336 -18118.000 -22997.000  26.9%  71.3  535s
  1429  1431 -18416.500  717 5360 -18118.000 -22997.000  26.9%  71.0  540s
  1449  1451 -18369.500  727 5341 -18118.000 -22997.000  26.9%  70.8  545s
  1471  1473 -18332.500  739 5245 -18118.000 -22997.000  26.9%  70.2  571s
  1486  1488 -18301.500  746 5235 -18118.000 -22997.000  26.9%  70.1  575s
  1510  1512 -18271.000  759 5176 -18118.000 -22997.000  26.9%  69.4  580s
  1534  1536 -18223.000  771 5156 -18118.000 -22997.000  26.9%  68.9  585s
  1558  1560 -18174.500  784 5016 -18118.000 -22997.000  26.9%  68.4  590s
H 1560  1560                    -18124.00000 -22997.000  26.9%  68.4  591s
  1577  1579 -18149.500  793 4965 -18124.000 -22997.000  26.9%  68.2  595s
H 1586  1586                    -18130.00000 -22997.000  26.8%  68.0  597s
  1606  1582     cutoff  799      -18130.000 -22997.000  26.8%  67.5  600s
H 1612  1582                    -18142.00000 -22997.000  26.8%  67.3  602s
  1620  1579 -18897.000  612 6719 -18142.000 -22996.500  26.8%  67.1  648s
  1622  1580 -20372.000  337 2896 -18142.000 -22996.500  26.8%  67.0  677s
  1623  1581 -20330.000  343 3716 -18142.000 -22996.500  26.8%  67.0  684s
  1624  1582 -19057.000  579 4354 -18142.000 -22469.889  23.9%  67.0  702s
  1625  1582 -20635.000  297 4847 -18142.000 -21976.595  21.1%  66.9  750s
  1626  1583 -19342.000  503 5049 -18142.000 -21850.576  20.4%  66.9  792s
  1627  1584 -20337.000  342 5124 -18142.000 -21823.665  20.3%  66.8  804s
  1628  1584 -20505.000  318 5147 -18142.000 -21819.389  20.3%  66.8  809s
  1629  1585 -21024.000  238 5188 -18142.000 -21817.406  20.3%  66.8  812s
  1632  1587 -21817.010   12 5189 -18142.000 -21817.010  20.3%  66.6  815s
  1633  1588 -18651.000  668 5187 -18142.000 -21817.010  20.3%  66.6  825s
  1634  1588 -20096.000  376 5550 -18142.000 -21446.588  18.2%  66.5  986s
  1635  1589 -18818.500  628 6043 -18142.000 -21328.535  17.6%  66.5 1224s
  1636  1590 -21291.633   63 6321 -18142.000 -21291.633  17.4%  66.5 1485s
  1637  1590 -19133.000  552 6406 -18142.000 -21280.084  17.3%  66.4 1628s
  1638  1591 -20026.167  387 6509 -18142.000 -21276.657  17.3%  66.4 1695s
  1639  1592 -19445.000  485 6567 -18142.000 -21275.228  17.3%  66.3 1717s
  1640  1592 -20713.000  285 6591 -18142.000 -21274.457  17.3%  66.3 1733s
  1641  1593 -20165.000  367 6692 -18142.000 -21274.170  17.3%  66.3 1740s
  1642  1594 -18353.500  734 6712 -18142.000 -21274.085  17.3%  66.2 1745s
  1644  1595 -21274.047  161 6701 -18142.000 -21274.047  17.3%  66.1 1752s
  1646  1596 -19925.500  404 6738 -18142.000 -21274.034  17.3%  66.1 1756s
  1647  1597 -21274.034   14 6745 -18142.000 -21274.034  17.3%  66.0 1771s

Cutting planes:
  Gomory: 71
  MIR: 500
  Flow cover: 2552
  Zero half: 1693
  RLT: 501
  BQP: 826

Explored 1647 nodes (338805 simplex iterations) in 2048.03 seconds (136.02 work units)
Thread count was 1 (of 72 available processors)

Solution count 9: -18142 -18130 -18124 ... 0

Time limit reached
Best objective -1.814200000000e+04, best bound -2.127400000000e+04, gap 17.2638%

User-callback calls 40769, time in user-callback 2.16 sec

BQP_SOLUTION, 2897, 13438, -6324.000000, 2048.027200, -1, 1, -1, 1, -1, 1, -1, -1, -1, 1, -1, 1, -1, 1, 1, -1, 1, -1, 1, 1, -1, 1, -1, 1, -1, 1, -1, 1, 1, -1, 1, -1, 1, -1, 1, 1, 1, 1, 1, 1, -1, 1, -1, -1, -1, -1, 1, 1, 1, -1, 1, -1, 1, -1, 1, -1, 1, -1, 1, 1, 1, -1, 1, -1, -1, -1, -1, 1, 1, -1, 1, -1, -1, -1, 1, -1, -1, -1, -1, 1, 1, 1, -1, 1, -1, -1, -1, 1, -1, -1, 1, -1, 1, -1, 1, -1, -1, -1, -1, -1, -1, 1, -1, 1, -1, -1, -1, -1, 1, 1, -1, -1, 1, 1, -1, 1, 1, -1, -1, 1, -1, -1, -1, 1, 1, 1, 1, 1, -1, -1, 1, -1, -1, 1, 1, -1, 1, -1, 1, -1, 1, -1, -1, -1, 1, 1, 1, 1, 1, -1, -1, -1, -1, 1, 1, 1, 1, -1, 1, -1, -1, -1, 1, 1, 1, -1, 1, 1, -1, 1, -1, -1, -1, 1, -1, 1, 1, 1, 1, -1, 1, 1, -1, -1, 1, 1, -1, -1, 1, -1, 1, 1, 1, -1, -1, -1, 1, 1, 1, 1, 1, -1, 1, 1, -1, -1, -1, 1, 1, -1, 1, 1, -1, 1, -1, 1, -1, 1, -1, 1, 1, -1, 1, 1, 1, 1, 1, -1, -1, 1, 1, -1, 1, 1, 1, -1, 1, -1, -1, -1, 1, 1, -1, 1, 1, -1, 1, -1, 1, -1, -1, 1, 1, 1, -1, 1, 1, 1, -1, 1, -1, 1, 1, 1, 1, 1, 1, 1, 1, 1, -1, -1, 1, -1, 1, 1, 1, -1, 1, 1, -1, -1, -1, 1, 1, 1, -1, 1, 1, 1, -1, 1, 1, -1, -1, 1, 1, -1, 1, -1, 1, 1, -1, 1, -1, -1, 1, -1, 1, 1, -1, 1, 1, 1, -1, -1, -1, -1, 1, -1, 1, -1, -1, 1, -1, 1, -1, -1, 1, 1, -1, 1, -1, 1, 1, -1, -1, -1, 1, -1, 1, -1, 1, 1, 1, 1, 1, -1, -1, -1, -1, 1, -1, 1, -1, 1, -1, 1, -1, -1, -1, -1, -1, 1, 1, 1, 1, -1, 1, -1, -1, -1, 1, 1, 1, 1, -1, 1, -1, 1, -1, 1, -1, -1, -1, -1, -1, 1, 1, -1, -1, 1, -1, -1, 1, -1, -1, 1, 1, -1, 1, 1, -1, -1, -1, 1, -1, 1, 1, 1, 1, 1, 1, -1, -1, -1, 1, 1, -1, 1, 1, -1, -1, -1, -1, -1, -1, 1, 1, 1, -1, 1, -1, 1, -1, -1, -1, -1, 1, -1, 1, 1, 1, -1, 1, -1, -1, -1, -1, 1, -1, 1, -1, -1, -1, 1, -1, -1, 1, -1, 1, 1, 1, -1, 1, -1, 1, 1, -1, -1, -1, 1, 1, -1, 1, 1, -1, 1, 1, -1, -1, 1, -1, 1, -1, -1, 1, -1, 1, 1, -1, 1, -1, 1, 1, -1, -1, 1, 1, -1, 1, -1, -1, 1, 1, 1, 1, -1, 1, -1, 1, 1, -1, -1, -1, 1, 1, 1, -1, -1, -1, -1, 1, -1, 1, -1, 1, 1, -1, -1, -1, -1, 1, 1, -1, 1, 1, 1, -1, 1, -1, 1, -1, -1, -1, -1, 1, 1, 1, 1, -1, 1, -1, -1, 1, 1, -1, 1, 1, 1, 1, -1, -1, 1, 1, 1, -1, -1, 1, 1, 1, 1, 1, 1, -1, -1, 1, -1, -1, 1, -1, 1, 1, -1, -1, -1, 1, 1, 1, -1, -1, 1, 1, 1, 1, 1, 1, 1, -1, -1, -1, 1, 1, 1, 1, 1, 1, 1, 1, 1, -1, 1, -1, 1, 1, 1, 1, 1, -1, 1, -1, 1, -1, -1, 1, 1, 1, 1, 1, 1, 1, 1, 1, -1, -1, 1, 1, -1, 1, 1, 1, 1, 1, 1, -1, -1, 1, 1, 1, 1, 1, 1, 1, -1, 1, -1, -1, 1, 1, 1, 1, -1, 1, 1, -1, -1, -1, 1, 1, 1, -1, 1, 1, 1, 1, 1, -1, 1, -1, 1, 1, 1, 1, 1, 1, 1, -1, -1, 1, 1, -1, 1, 1, 1, 1, 1, -1, 1, -1, -1, 1, 1, 1, 1, 1, 1, -1, 1, -1, -1, 1, 1, 1, 1, 1, 1, 1, 1, 1, 1, -1, -1, 1, 1, 1, 1, 1, 1, -1, 1, 1, -1, -1, 1, 1, 1, 1, 1, 1, 1, 1, 1, 1, -1, 1, 1, 1, 1, 1, 1, 1, -1, 1, 1, -1, 1, 1, 1, 1, -1, 1, 1, -1, 1, 1, -1, 1, 1, 1, 1, 1, 1, 1, 1, 1, 1, -1, 1, 1, 1, 1, 1, 1, 1, -1, 1, 1, -1, 1, 1, 1, 1, 1, -1, 1, 1, 1, -1, 1, 1, 1, -1, -1, 1, 1, 1, 1, 1, 1, -1, 1, 1, 1, 1, 1, -1, -1, 1, -1, 1, 1, 1, 1, 1, 1, 1, -1, 1, -1, 1, -1, 1, 1, 1, 1, 1, 1, -1, -1, 1, 1, -1, -1, 1, 1, 1, 1, 1, -1, 1, -1, -1, -1, 1, 1, -1, 1, 1, -1, -1, 1, -1, -1, -1, 1, 1, 1, 1, 1, -1, -1, 1, -1, -1, -1, -1, 1, 1, 1, -1, 1, -1, 1, -1, -1, -1, 1, 1, 1, 1, 1, 1, -1, 1, -1, -1, -1, 1, 1, 1, -1, 1, -1, -1, -1, -1, -1, -1, 1, 1, -1, 1, 1, 1, -1, 1, -1, -1, -1, -1, 1, -1, 1, -1, 1, -1, -1, -1, 1, -1, 1, -1, -1, 1, -1, -1, 1, -1, -1, -1, -1, 1, -1, 1, -1, -1, 1, 1, -1, -1, -1, 1, -1, 1, 1, 1, -1, -1, 1, -1, -1, -1, -1, 1, -1, -1, 1, -1, 1, -1, -1, -1, -1, -1, 1, -1, 1, -1, -1, 1, -1, -1, -1, -1, 1, 1, -1, 1, -1, -1, -1, 1, -1, -1, 1, -1, -1, 1, 1, -1, -1, -1, -1, -1, -1, -1, 1, -1, 1, -1, -1, -1, -1, 1, -1, 1, 1, -1, -1, -1, -1, -1, -1, -1, -1, 1, -1, -1, -1, -1, -1, -1, 1, -1, -1, 1, -1, -1, 1, -1, -1, 1, -1, -1, -1, -1, 1, 1, 1, -1, 1, -1, 1, -1, -1, -1, 1, 1, -1, 1, -1, 1, -1, 1, -1, -1, -1, -1, -1, -1, 1, -1, -1, 1, -1, -1, -1, -1, 1, 1, -1, -1, 1, -1, -1, -1, -1, 1, -1, 1, 1, 1, -1, -1, 1, -1, -1, 1, -1, -1, -1, 1, -1, 1, -1, -1, 1, -1, -1, -1, -1, -1, 1, 1, -1, 1, -1, -1, 1, -1, -1, 1, -1, 1, 1, -1, 1, -1, 1, -1, 1, -1, -1, 1, 1, -1, -1, -1, -1, -1, -1, 1, -1, -1, -1, 1, 1, 1, -1, -1, 1, -1, 1, 1, 1, -1, -1, 1, -1, -1, -1, -1, -1, 1, -1, 1, -1, 1, 1, -1, -1, -1, -1, 1, 1, -1, 1, 1, 1, 1, -1, 1, -1, -1, 1, -1, -1, -1, 1, -1, 1, 1, -1, 1, -1, -1, 1, -1, -1, 1, 1, -1, -1, 1, -1, 1, -1, -1, 1, 1, -1, 1, 1, -1, -1, 1, 1, 1, 1, -1, 1, -1, 1, -1, -1, 1, -1, -1, -1, 1, -1, 1, -1, 1, 1, -1, -1, -1, -1, 1, 1, -1, 1, -1, 1, 1, -1, -1, 1, -1, 1, 1, 1, 1, -1, 1, 1, 1, 1, -1, -1, 1, -1, -1, 1, -1, 1, 1, -1, 1, 1, -1, 1, 1, -1, 1, 1, -1, 1, 1, 1, 1, -1, 1, -1, -1, 1, -1, 1, 1, -1, 1, 1, -1, 1, -1, -1, 1, 1, 1, -1, -1, -1, 1, -1, 1, 1, -1, 1, 1, -1, 1, 1, 1, 1, -1, 1, 1, 1, 1, -1, -1, 1, 1, 1, 1, 1, 1, -1, 1, 1, -1, 1, 1, 1, 1, -1, 1, 1, 1, 1, 1, -1, -1, 1, 1, -1, -1, 1, 1, -1, -1, 1, 1, -1, 1, -1, 1, -1, -1, 1, -1, 1, 1, 1, -1, -1, 1, 1, -1, -1, 1, -1, -1, 1, 1, -1, -1, 1, -1, -1, -1, 1, 1, -1, 1, 1, -1, -1, -1, 1, -1, -1, 1, -1, -1, 1, -1, -1, -1, 1, 1, -1, -1, 1, -1, -1, 1, 1, 1, -1, -1, 1, 1, -1, 1, 1, -1, 1, 1, -1, -1, 1, -1, -1, -1, -1, -1, -1, -1, 1, 1, -1, -1, 1, -1, 1, -1, -1, 1, 1, 1, 1, -1, 1, -1, -1, -1, 1, 1, 1, 1, -1, 1, -1, -1, 1, -1, 1, 1, 1, -1, 1, -1, -1, -1, 1, 1, -1, -1, 1, 1, -1, 1, -1, -1, -1, -1, 1, -1, 1, -1, 1, 1, 1, -1, -1, -1, -1, 1, -1, 1, 1, 1, -1, 1, -1, -1, -1, -1, 1, 1, 1, 1, -1, 1, -1, -1, 1, -1, 1, -1, 1, 1, 1, -1, 1, 1, -1, -1, -1, 1, -1, -1, 1, 1, -1, 1, 1, -1, 1, -1, 1, 1, 1, 1, 1, -1, 1, 1, -1, -1, -1, -1, 1, -1, 1, 1, 1, -1, -1, -1, 1, -1, -1, 1, 1, 1, 1, -1, -1, -1, 1, -1, 1, -1, 1, 1, 1, 1, 1, -1, 1, -1, -1, -1, 1, 1, 1, 1, 1, 1, -1, -1, -1, 1, -1, 1, 1, 1, 1, 1, -1, -1, 1, -1, -1, -1, 1, 1, 1, 1, -1, 1, -1, 1, -1, -1, 1, 1, 1, -1, 1, -1, -1, 1, -1, -1, -1, -1, 1, 1, 1, -1, 1, -1, 1, -1, -1, -1, -1, 1, 1, 1, 1, 1, -1, -1, -1, 1, -1, -1, 1, 1, 1, 1, -1, -1, -1, 1, -1, -1, -1, 1, 1, 1, -1, -1, 1, -1, -1, -1, -1, -1, 1, 1, -1, 1, -1, -1, -1, -1, 1, -1, -1, 1, 1, -1, 1, 1, -1, -1, 1, 1, -1, -1, 1, 1, 1, -1, 1, -1, -1, -1, 1, 1, -1, 1, -1, -1, -1, -1, -1, -1, 1, 1, -1, -1, 1, 1, -1, -1, -1, -1, -1, 1, -1, -1, 1, 1, -1, 1, 1, -1, -1, 1, 1, -1, -1, 1, 1, 1, -1, 1, -1, 1, -1, 1, -1, 1, -1, 1, -1, -1, 1, -1, 1, -1, 1, -1, -1, 1, 1, -1, -1, 1, -1, 1, 1, 1, -1, -1, 1, 1, -1, -1, -1, -1, -1, 1, -1, -1, 1, 1, 1, -1, 1, -1, -1, 1, -1, 1, -1, 1, 1, 1, -1, -1, 1, -1, -1, 1, -1, -1, 1, 1, 1, -1, -1, 1, -1, 1, -1, -1, -1, 1, 1, 1, -1, -1, 1, -1, 1, -1, 1, -1, 1, 1, 1, -1, -1, -1, 1, -1, -1, 1, -1, 1, 1, 1, 1, -1, 1, -1, -1, -1, 1, 1, -1, 1, 1, 1, -1, -1, 1, -1, -1, -1, 1, 1, 1, 1, -1, 1, -1, 1, 1, -1, -1, -1, 1, 1, -1, 1, -1, 1, -1, -1, 1, 1, -1, 1, 1, 1, -1, -1, 1, 1, -1, 1, -1, 1, 1, -1, 1, 1, -1, -1, 1, -1, 1, -1, -1, 1, 1, -1, 1, -1, 1, -1, 1, -1, -1, -1, 1, 1, -1, 1, 1, -1, 1, -1, 1, -1, -1, -1, -1, -1, 1, -1, -1, -1, -1, -1, -1, -1, 1, 1, -1, 1, -1, 1, -1, -1, 1, 1, -1, 1, -1, 1, -1, -1, 1, -1, -1, -1, 1, -1, 1, -1, 1, -1, -1, -1, -1, 1, 1, -1, -1, 1, -1, -1, 1, -1, 1, -1, 1, 1, -1, -1, 1, -1, -1, 1, -1, -1, -1, 1, -1, 1, -1, -1, -1, 1, 1, -1, -1, -1, 1, -1, 1, -1, -1, -1, 1, 1, -1, -1, 1, 1, -1, -1, 1, -1, -1, 1, -1, -1, 1, -1, 1, -1, 1, -1, -1, -1, -1, 1, -1, -1, -1, 1, -1, -1, 1, -1, -1, -1, -1, 1, -1, -1, 1, -1, 1, -1, -1, -1, -1, 1, -1, -1, 1, 1, -1, -1, -1, 1, -1, -1, 1, 1, -1, -1, -1, 1, -1, 1, -1, -1, -1, 1, -1, -1, 1, 1, -1, -1, -1, -1, -1, -1, 1, 1, -1, -1, 1, 1, -1, -1, 1, 1, -1, 1, 1, -1, 1, -1, 1, -1, 1, 1, -1, -1, 1, 1, -1, 1, 1, -1, 1, -1, -1, -1, -1, 1, 1, -1, 1, -1, 1, -1, 1, 1, -1, -1, 1, -1, 1, 1, 1, -1, -1, 1, 1, -1, 1, 1, 1, 1, 1, -1, 1, -1, 1, -1, -1, -1, 1, 1, 1, 1, -1, 1, -1, 1, 1, 1, -1, 1, 1, 1, -1, -1, -1, -1, 1, 1, -1, -1, 1, -1, 1, 1, -1, 1, -1, 1, 1, 1, -1, 1, -1, 1, -1, -1, -1, -1, 1, 1, 1, -1, 1, -1, -1, -1, 1, -1, -1, 1, 1, -1, -1, 1, -1, -1, -1, -1, -1, -1, 1, 1, 1, 1, 1, -1, 1, 1, -1, -1, -1, 1, -1, -1, 1, 1, -1, 1, -1, 1, -1, 1, 1, 1, 1, 1, -1, -1, 1, -1, -1, 1, -1, 1, 1, 1, 1, 1, -1, -1, 1, -1, 1, -1, 1, 1, 1, -1, 1, -1, 1, -1, 1, -1, 1, -1, 1, 1, -1, -1, 1, 1, -1, 1, -1, 1, 1, 1, 1, -1, 1, -1, 1, -1, 1, 1, 1, -1, 1, -1, 1, -1, 1, -1, 1, 1, -1, 1, 1, 1, 1, -1, 1, -1, 1, 1, -1, 1, 1, 1, 1, -1, 1, 1, 1, -1, 1, 1, 1, 1, 1, 1, -1, 1, 1, 1, 1, 1, 1, 1, 1, 1, -1, -1, -1, 1, 1, 1, -1, 1, 1, 1, 1, -1, 1, -1, 1, 1, 1, 1, 1, 1, 1, 1, 1, 1, -1, -1, 1, 1, 1, 1, 1, 1, 1, -1, 1, -1, 1, 1, -1, 1, -1, 1, 1, 1, 1, 1, -1, 1, 1, 1, 1, 1, 1, 1, -1, 1, -1, 1, 1, 1, -1, 1, 1, 1, 1, -1, 1, -1, 1, 1, 1, 1, 1, -1, 1, 1, 1, 1, -1, 1, 1, 1, 1, 1, 1, 1, 1, 1, -1, -1, -1, 1, 1, 1, 1, 1, -1, 1, 1, -1, 1, 1, 1, 1, 1, 1, 1, 1, 1, 1, 1, -1, -1, 1, 1, 1, 1, 1, 1, 1, -1, 1, 1, 1, 1, 1, 1, -1, 1, -1, 1, 1, 1, -1, -1, 1, 1, 1, 1, 1, -1, -1, -1, 1, -1, -1, 1, 1, 1, 1, 1, 1, -1, 1, -1, 1, -1, 1, 1, 1, 1, 1, -1, -1, 1, 1, 1, -1, -1, 1, 1, 1, 1, -1, -1, 1, 1, -1, 1, 1, 1, 1, 1, 1, -1, 1, 1, 1, -1, 1, 1, 1, 1, -1, 1, -1, -1, 1, 1, -1, 1, -1, 1, 1, 1, -1, -1, -1, 1, 1, -1, 1, 1, -1, 1, -1, 1, -1, 1, 1, 1, -1, 1, 1, 1, 1, -1, -1, -1, -1, 1, 1, -1, 1, 1, -1, 1, 1, 1, -1, 1, -1, 1, 1, 1, 1, -1, 1, 1, -1, -1, -1, 1, 1, 1, -1, -1, -1, 1, 1, -1, -1, 1, 1, 1, 1, 1, 1, -1, 1, 1, 1, -1, -1, -1, 1, -1, 1, -1, -1, -1, 1, -1, -1, -1, -1, -1, 1, 1, -1, -1, 1, 1, -1, -1, -1, -1, -1, 1, 1, 1, -1, 1, 1, -1, -1, -1, -1, 1, 1, 1, -1, -1, 1, 1, -1, -1, -1, -1, 1, 1, -1, -1, -1, 1, -1, 1, -1, 1, 1, -1, 1, 1, 1, -1, 1, 1, -1, -1, -1, 1, -1, 1, 1, 1, -1, 1, 1, -1, -1, -1, 1, 1, 1, 1, 1, 1, 1, -1, -1, -1, -1, 1, 1, 1, 1, 1, -1, -1, 1, -1, 1, -1, 1, -1, 1, 1, 1, -1, 1, 1, -1, -1, 1, -1, 1, -1, 1, 1, -1, 1, -1, -1, -1, -1, 1, -1, 1, 1, 1, 1, -1, -1, -1, -1, -1, -1, 1, -1, 1, 1, -1, -1, 1, -1, -1, -1, 1, 1, 1, 1, 1, -1, -1, 1, -1, 1, -1, 1, -1, -1, -1, -1, 1, -1, 1, -1, -1, -1, 1, -1, -1, 1, 1, -1, 1, -1, -1, -1, -1, -1, 1, -1, 1, 1, -1, 1, -1, -1, -1, 1, -1, 1, -1, 1, -1, -1, -1, -1, -1, -1, 1, -1, 1, -1, -1, -1, -1, -1, -1, -1, -1, 1, 1, 1, -1, 1, -1, -1, 1, -1, -1, -1, 1, 1, 1, -1, -1, 1, -1, -1, -1, -1, -1, 1, -1, 1, -1, -1, 1, 1, -1, -1, -1, 1, 1, -1, 1, -1, -1, 1, -1, -1, 1, -1, -1, -1, -1, 1, -1, -1, 1, -1, 1, -1, -1, -1, -1, 1, 1, 1, -1, 1, -1, -1, -1, 1, -1, 1, 1, 1, -1, 1, 1, -1, 1, -1, 1, -1, 1, 1, -1, 1, -1, -1, -1, -1, -1, -1, 1, 1, 1, 1, 1, -1
BQP_DATA, 2897, 13438, -6324.000000, -9456.000000, -18142.000000, -21274.000000, 2048.027200, 4816, 1647
